% demand
num_movements = 28;
loading_factor = [850, 1000, 1050, 2000, 1600, 850, 1700, 1950, 1900, 1250, 1100, 1700, 1450, 900, 1050, 1400, 1100, 1600, 1850, 1700, 1000, 1800, 850, 1250, 1500, 1700, 1400, 1950];
pickup_time = [0, 0, 0, 0, 0, 0, 0, 0, 3, 3, 3, 3, 3, 3, 4, 5, 5, 5, 5, 6, 6, 7, 8, 9, 9, 9, 9, 9];
delivery_time = [3, 5, 3, 3, 3, 5, 3, 3, 4, 4, 5, 4, 4, 4, 5, 8, 7, 7, 7, 7, 7, 10, 10, 10, 10, 10, 10, 10];

% transporter definition
total_capacity = 11000;
num_decks = 4;
capacity = [3000, 3000, 1000, 4000];

% ways out of decks
num_ways_out = 2;
paths_out = array3d(decks, ways_out, decks, [
% ways out of deck d1
2, 4, 0, 0, 3, 4, 0, 0, 

% ways out of deck d2
4, 0, 0, 0, 0, 0, 0, 0,	

% ways out of deck d3
4, 0, 0, 0, 0, 0, 0, 0,	

% ways out of deck d4
0, 0, 0, 0,	0, 0, 0, 0,	

]);

